objective value:                                   82
t_x4                                                1 	(obj:0)
t_x7                                                1 	(obj:0)
t_x12                                               1 	(obj:0)
t_x15                                               1 	(obj:0)
t_x16                                               1 	(obj:0)
t_x17                                               1 	(obj:0)
t_x25                                               1 	(obj:0)
t_x28                                               1 	(obj:0)
t_x32                                               1 	(obj:0)
t_x34                                               1 	(obj:0)
t_x38                                               1 	(obj:0)
t_x40                                               1 	(obj:0)
t_x49                                               1 	(obj:0)
t_x50                                               1 	(obj:0)
t_x51                                               1 	(obj:0)
t_x55                                               1 	(obj:0)
t_x1                                               82 	(obj:1)
t_x74                                              61 	(obj:0)
t_x75                                              30 	(obj:0)
t_x76                                              14 	(obj:0)
t_x77                                              11 	(obj:0)
t_x81                                               6 	(obj:0)
t_x98                                              72 	(obj:0)
t_x99                                              44 	(obj:0)
t_x100                                              3 	(obj:0)
t_x101                                             11 	(obj:0)
t_x105                                             14 	(obj:0)
t_x138                                             61 	(obj:0)
t_x140                                             41 	(obj:0)
t_x141                                             11 	(obj:0)
t_x143                                              9 	(obj:0)
t_x162                                             72 	(obj:0)
t_x164                                             40 	(obj:0)
t_x165                                              8 	(obj:0)
t_x167                               9.99999999999999 	(obj:0)
t_x168                                             14 	(obj:0)
t_x170                                             53 	(obj:0)
t_x172                                             35 	(obj:0)
t_x173                                              7 	(obj:0)
t_x174                                              8 	(obj:0)
t_x175                                              3 	(obj:0)
t_x178                                             67 	(obj:0)
t_x179                                             10 	(obj:0)
t_x180                                             28 	(obj:0)
t_x181                                              8 	(obj:0)
t_x182                                             14 	(obj:0)
t_x185                                              7 	(obj:0)
t_x242                                             64 	(obj:0)
t_x243                                             17 	(obj:0)
t_x245                                             30 	(obj:0)
t_x247                                             14 	(obj:0)
t_x248                                              3 	(obj:0)
t_x266                                             69 	(obj:0)
t_x268                                              6 	(obj:0)
t_x270                                             33 	(obj:0)
t_x271                                             15 	(obj:0)
t_x272                                             15 	(obj:0)
t_x298                                             68 	(obj:0)
t_x300                                             15 	(obj:0)
t_x302                                             34 	(obj:0)
t_x304                                              4 	(obj:0)
t_x305                                             15 	(obj:0)
t_x314                                             65 	(obj:0)
t_x316                                             14 	(obj:0)
t_x317                                              5 	(obj:0)
t_x319                                             41 	(obj:0)
t_x321                                              5 	(obj:0)
t_x346                                             51 	(obj:0)
t_x350                               7.99999999999999 	(obj:0)
t_x351                                             34 	(obj:0)
t_x352                                              9 	(obj:0)
t_x362                                             82 	(obj:0)
t_x364                                              5 	(obj:0)
t_x366                                             24 	(obj:0)
t_x367                                             36 	(obj:0)
t_x368                                             17 	(obj:0)
t_x434                                             57 	(obj:0)
t_x435                                             13 	(obj:0)
t_x438                                              6 	(obj:0)
t_x440                                             38 	(obj:0)
t_x442                                             69 	(obj:0)
t_x443                                             25 	(obj:0)
t_x446                                             16 	(obj:0)
t_x447                               1.00000000000001 	(obj:0)
t_x449                                             27 	(obj:0)
t_x450                                             70 	(obj:0)
t_x451                                             31 	(obj:0)
t_x455                                              2 	(obj:0)
t_x456                                              6 	(obj:0)
t_x457                                             31 	(obj:0)
t_x482                                             63 	(obj:0)
t_x483                                             12 	(obj:0)
t_x486                                              7 	(obj:0)
t_x488                                             14 	(obj:0)
t_x489                                             30 	(obj:0)
t_x506                                            151 	(obj:0)
t_x507                                            169 	(obj:0)
t_x508                                            109 	(obj:0)
t_x509                                            107 	(obj:0)
t_x510                                            155 	(obj:0)
t_x511                                            127 	(obj:0)
t_x512                                            118 	(obj:0)
t_x513                                            108 	(obj:0)
t_x514                                            133 	(obj:0)
t_x515                                            133 	(obj:0)
t_x516                                            120 	(obj:0)
t_x517                                            133 	(obj:0)
t_x518                                            133 	(obj:0)
t_x519                                            133 	(obj:0)
t_x520                                            126 	(obj:0)
t_x521                                            133 	(obj:0)
